10
1 2 12
1 3 10
1 4 29
1 5 20
1 6 15
1 7 22
1 8 25
1 9 30
1 10 18
2 3 8
2 4 16
2 5 12
2 6 14
2 7 17
2 8 19
2 9 24
2 10 21
3 4 28
3 5 16
3 6 19
3 7 26
3 8 23
3 9 30
3 10 22
4 5 15
4 6 20
4 7 25
4 8 30
4 9 22
4 10 18
5 6 24
5 7 28
5 8 20
5 9 26
5 10 23
6 7 27
6 8 22
6 9 18
6 10 30
7 8 29
7 9 24
7 10 21
8 9 17
8 10 20
9 10 25
